100
32
6
17
2
25
14
21
14
14
8
10
30
17
23
12
12
13
10
1
10
19
4
6
1
1
6
1
17
5
4
3
4
1
3
16
3
1
1
1
4
2
1
6
20
1
3
1
1
18
1
2
1
4
18
1
1
2
19
1
2
9
1
1
1
1
2
2
1
1
1
2
17
2
2
6
2
1
19
1
2
1
2
3
1
2
3
3
1
1
3
18
3
5
1
2
1
2
1
2
2
1